131
180
98
413
404
660
435
601
199
567
267
597
208
246
323
618
305
1
44
697
448
567
140
208
190
371
490
61
121
51
678
661
160
294
522
468
320
403
243
651
630
654
512
409
609
632
131
75
142
493
438
155
145
93
32
438
692
54
190
545

560
770
418
1765
1728

806
1109
602
2539
2486

4525.2

94
129
70
295
289
471
311
429
142
405
191
426
149
176
231
441
218
1
32
498
320
405
100
149
136
265
350
44
87
37
484
472
115
210
373
334
229
288
174
465
450
467
366
292
435
451
94
54
102
352
313
111
104
67
23
313
494
39
136
389
